p cnf 188 925
-97 -214 -684 0
-777 -784 -2682 0
-97 -142 -143 -213 -684 0
-2819 0
-777 -784 -3373 0
-97 -714 -3373 0
-97 -143 -179 -213 -2682 0
-97 -143 -179 -213 -3373 0
-97 -184 -206 -213 -3373 0
-175 -210 -652 -784 -2682 0
-175 -210 -652 -784 -3373 0
-97 -175 -213 -682 -3373 0
-181 -211 -776 -784 -2682 0
-181 -211 -776 -784 -3373 0
-175 -1688 -3373 0
-175 -1720 -2682 0
-175 -1720 -3373 0
-97 -205 -214 -2689 -3373 0
-97 -175 -214 -2682 -2690 0
-97 -175 -214 -2690 -3373 0
-143 -181 -211 -2712 -3373 0
-97 -213 -710 -2682 -2791 0
-97 -213 -710 -2791 -3373 0
-181 -211 -2820 -3373 0
-202 -710 -2682 -2854 0
-202 -710 -2854 -3373 0
-145 -188 -710 -2891 -3373 0
-97 -213 -2682 -3369 0
-97 -213 -3369 -3373 0
-97 -211 -214 -3373 -3381 0
-205 -2682 -3403 0
-205 -3373 -3403 0
-97 -213 -3373 -3404 0
-778 -779 -784 -2682 -3407 0
-778 -779 -784 -3373 -3407 0
-210 -784 -3410 0
-181 -211 -215 -2682 -3435 0
-181 -211 -215 -3373 -3435 0
-97 -213 -2687 -3373 -3437 0
-3439 0
-147 -177 -205 -2682 -3440 0
-177 -681 -779 -2682 -3440 0
-181 -211 -713 -2682 -3440 0
-781 -2682 -3440 0
-147 -205 -782 -2682 -3440 0
-681 -779 -782 -2682 -3440 0
-681 -779 -1864 -2682 -3473 0
-3476 0
-97 -213 -2682 -2687 -3735 0
-778 -784 -2682 -2687 -3735 0
-142 -143 -684 -778 -784 0
-143 -179 -778 -784 -2682 0
-184 -206 -778 -784 -2682 0
-175 -682 -778 -784 -2682 0
-710 -778 -784 -2682 -2791 0
-778 -784 -2682 -3369 0
-778 -784 -2682 -3404 0
-778 -784 -2682 -2687 -3437 0
-714 -785 -2682 0
-205 -214 -785 -2682 -2689 0
-175 -214 -785 -2682 -2690 0
-211 -214 -785 -2682 -3381 0
-181 -211 -784 -2682 -3747 0
-778 -784 -2682 -3377 -3758 0
-210 -211 -784 -2682 -3763 0
-175 -210 -784 -2682 -3767 0
-714 -778 -784 -2682 -3409 0
-205 -1864 -2682 -2689 -2816 0
-205 -1864 -2682 -2689 -3401 0
-210 -714 -784 -2682 -3411 0
-209 -215 -714 -2682 -3411 0
-143 -747 -778 -784 -3410 0
-651 -778 -784 -3410 -3433 0
-212 -684 -2687 -2712 0
-651 -684 -2711 -2712 0
-684 -2687 -2712 -2785 -3402 0
-684 -3478 0
-684 -2687 -2712 -3402 -3745 0
-97 -714 -2682 0
-142 -684 -2820 0
-184 -684 -2712 -2816 0
-684 -1864 -2816 0
-209 -215 -3410 0
-747 -2820 -3410 0
-146 -684 -777 -784 -2816 0
-174 -684 -2712 -2791 0
-176 -684 -1688 0
-180 -777 -784 -3410 0
-648 -684 -777 -784 0
-177 -209 -650 -3410 -3440 0
-671 -2854 -3410 -3433 0
-209 -678 -3410 0
-684 -706 -2816 -2854 0
-684 -711 -1688 0
-759 -2891 -3410 0
-780 -2712 -3407 -3410 0
-97 -783 -3410 0
-2693 -2891 -3410 0
-2694 -2854 -3410 0
-209 -650 -3400 -3403 -3410 0
-2891 -3421 0
-2854 -3410 -3426 -3433 0
-2712 -3377 -3410 -3432 0
-181 -684 -2820 -3436 0
-209 -650 -2820 -3410 -3441 0
-684 -777 -784 -3442 0
-2891 -3410 -3452 0
-684 -3403 -3472 0
-209 -3410 -3477 0
-684 -2712 -2791 -3749 0
-684 -2816 -2891 -3750 0
-684 -2816 -2820 -3374 -3441 0
-177 -3410 -3433 -3440 -3444 0
-177 -684 -3374 -3401 -3440 0
-184 -684 -2712 -3401 0
-177 -684 -2711 -3440 -3444 0
-671 -684 -2711 -2854 0
-684 -1864 -3401 0
-783 -785 -3410 0
-214 -684 -785 0
-144 -214 -785 -3410 0
-209 -650 -1864 -3410 -3473 0
-209 -650 -2891 -3410 -3473 -3750 0
-651 -2712 -3410 -3433 0
-97 -213 -651 -3410 -3433 0
-97 -180 -714 -3410 0
-175 -180 -1688 -3410 0
-179 -180 -2820 -3410 0
-180 -205 -3403 -3410 0
-180 -181 -211 -2820 -3410 0
-145 -180 -710 -2820 -3410 0
-180 -211 -3381 -3410 -3478 0
-180 -206 -706 -2854 -3410 0
-182 -781 -2682 -2820 0
-185 -777 -2682 -3478 0
-672 -781 -2682 -2854 0
-677 -1688 -2682 0
-97 -206 -214 -683 -2682 0
-210 -700 -2891 -3410 0
-750 -777 -2682 -2820 0
-709 -754 -2682 -3369 -3478 0
-200 -775 -2682 -2891 -3369 0
-97 -214 -2679 -2682 -3369 0
-2682 -2692 -2891 0
-777 -2682 -2787 -2820 0
-97 -214 -2682 -3369 -3370 0
-779 -2682 -2891 -3389 0
-780 -2891 -3389 -3410 0
-709 -2682 -2891 -3369 -3420 0
-180 -2818 -2854 -3410 -3425 0
-202 -2682 -2854 -3430 0
-145 -2682 -2820 -3430 0
-2682 -2820 -3371 -3430 0
-1688 -2682 -3434 0
-97 -184 -206 -2682 -3438 0
-777 -2682 -3478 -3755 0
-2681 -2682 -2820 -3369 -3760 0
-2682 -2794 -3369 -3478 -3760 0
-2682 -2809 -2891 -3369 -3760 0
-710 -2682 -2820 -3371 0
-184 -206 -213 -785 -2682 0
-213 -785 -2682 -3369 0
-142 -206 -683 -2682 -2820 0
-206 -214 -683 -785 -2682 0
-214 -785 -2679 -2682 -3369 0
-142 -2682 -2820 -3369 -3370 0
-214 -785 -2682 -3369 -3370 0
-785 -2682 -3369 -3438 0
-2682 -2817 -2891 -3369 -3420 0
-775 -2682 -2891 -3369 -3388 0
-775 -2682 -2820 -3369 -3405 0
-775 -2682 -3369 -3478 -3757 0
-754 -2682 -2817 -3369 -3478 0
-145 -710 -2682 -2820 0
-179 -2682 -2820 0
-206 -706 -2682 -2854 0
-2682 -2712 -3369 0
-2682 -2712 -3404 0
-779 -2682 -2712 -3407 0
-2682 -2687 -2712 -3437 0
-2682 -2712 -3377 -3758 0
-700 -777 -2682 -2891 0
-2682 -2818 -2854 -3425 0
-97 -213 -2682 -3378 -3437 0
-97 -213 -2682 -3408 -3437 0
-97 -213 -2682 -3437 -3446 0
-2682 -2712 -3408 -3437 0
-2682 -2712 -3378 -3437 0
-2682 -2712 -3437 -3446 0
-177 -751 -2682 -3440 -3758 0
-97 -213 -2682 -3446 -3735 0
-2682 -2687 -2712 -3735 0
-2682 -2712 -3378 -3735 0
-2682 -2712 -3408 -3735 0
-2682 -2712 -3446 -3735 0
-681 -779 -2682 -3400 -3403 0
-681 -779 -2682 -2820 -3441 0
-97 -213 -779 -2682 -3407 0
-213 -779 -785 -2682 -3407 0
-709 -754 -2682 -3404 -3478 0
-142 -2679 -2682 -2820 -3404 0
-1864 -2679 -2682 -2816 -3404 0
-1864 -2679 -2682 -3401 -3404 0
-2679 -2682 -3404 -3478 0
-2682 -3370 -3404 -3478 0
-2681 -2682 -2820 -3404 -3760 0
-775 -2682 -2820 -3404 -3405 0
-775 -2682 -3404 -3478 -3757 0
-178 -182 -2682 -2820 -3404 0
-210 -784 -2678 -2682 -3369 0
-1864 -2682 -2709 -3369 0
-215 -2682 -3369 -3769 0
-209 -215 -2678 -2682 -3369 0
-747 -2678 -2682 -2820 -3369 0
-714 -747 -2682 -2820 -3411 0
-178 -672 -2682 -2854 -3369 0
-678 -2682 -3369 -3769 0
-209 -678 -2678 -2682 -3369 0
-714 -2682 -2694 -2854 -3411 0
-144 -714 -2682 -3411 -3478 0
-209 -714 -2682 -3411 -3477 0
-2682 -3369 -3477 -3769 0
-185 -778 -2682 -3369 -3478 0
-750 -778 -2682 -2820 -3369 0
-778 -2682 -2787 -2820 -3369 0
-778 -2682 -3369 -3478 -3755 0
-144 -2678 -2682 -3369 -3478 0
-2678 -2682 -2694 -2854 -3369 0
-142 -144 -2820 -3410 0
-144 -1864 -2816 -3410 0
-206 -1864 -2682 0
-144 -176 -1720 -3410 0
-144 -711 -1720 -3410 0
-144 -3403 -3410 -3472 0
-144 -145 -174 -2820 -3410 0
-144 -181 -2820 -3410 -3436 0
-144 -145 -2820 -3410 -3749 0
-145 -173 -684 -2785 -2820 0
-145 -684 -2710 -2785 -2820 0
-145 -684 -2785 -2820 -3431 0
-684 -2785 -2820 -3405 -3475 0
-145 -684 -2710 -2820 -3745 0
-173 -684 -2820 -3371 -3745 0
-174 -684 -2820 -3371 0
-684 -2820 -3405 -3475 -3745 0
-181 -211 -2682 -2820 0
-684 -2680 -2820 -3472 0
-684 -2786 -2820 -3472 0
-205 -2682 -2786 -2820 0
-205 -2680 -2682 -2820 0
-179 -215 -2682 -3435 0
-179 -678 -2682 -3435 0
-179 -2682 -3435 -3477 0
-147 -205 -1864 -2682 -3473 0
-684 -1864 -2785 -3473 0
-684 -1864 -3473 -3745 0
-1864 -3410 -3433 -3444 -3473 0
-751 -1864 -2682 -3473 -3758 0
-148 -777 -1864 -2682 -3473 0
-179 -748 -1864 -2682 -3473 0
-710 -1864 -2682 -2685 -3473 0
-684 -1864 -2711 -3444 -3473 0
-681 -780 -1864 -3410 -3473 0
-751 -1864 -3410 -3432 -3473 0
-148 -210 -1864 -3410 -3473 0
-174 -684 -1864 -2685 -3473 0
-684 -1864 -2685 -3473 -3749 0
-1864 -2682 -2685 -3430 -3473 0
-147 -684 -1864 -3472 -3473 0
-181 -211 -675 -2682 -3403 0
-179 -675 -2682 -3403 0
-142 -675 -684 -3403 0
-747 -748 -1864 -3410 -3473 0
-182 -675 -781 -2682 -3403 0
-142 -684 -748 -3400 -3403 0
-178 -779 -2682 -3407 -3440 0
-175 -178 -682 -2682 -3440 0
-178 -2682 -3369 -3440 0
-142 -177 -684 -748 -3440 0
-142 -684 -748 -782 -3440 0
-142 -684 -748 -1864 -3473 0
-178 -2682 -3404 -3440 0
-181 -211 -678 -2682 -3435 0
-175 -682 -1864 -2682 -2709 0
-1864 -2682 -2709 -3404 0
-779 -1864 -2682 -2709 -3407 0
-1864 -2682 -2687 -2709 -3437 0
-178 -2682 -2687 -3440 -3735 0
-178 -2682 -3377 -3440 -3758 0
-178 -714 -2682 -3409 -3440 0
-178 -212 -684 -2687 -3440 0
-714 -1864 -2682 -2709 -3409 0
-1864 -2682 -2687 -2709 -3735 0
-1864 -2682 -2709 -3377 -3758 0
-212 -684 -1864 -2687 -2709 0
-212 -684 -2712 -3378 0
-212 -684 -2712 -3408 0
-212 -684 -2712 -3446 0
-214 -684 -2712 -3409 0
-783 -2712 -3409 -3410 0
-176 -682 -684 -2712 0
-682 -684 -711 -2712 0
-97 -213 -677 -682 -2682 0
-677 -1720 -2682 0
-1720 -2682 -3434 0
-177 -751 -3410 -3432 -3440 0
-751 -782 -3410 -3432 -3440 0
-751 -2682 -3400 -3403 -3758 0
-751 -2682 -2820 -3441 -3758 0
-751 -782 -2682 -3440 -3758 0
-97 -211 -783 -2682 -3763 0
-210 -684 -784 -3436 -3763 0
-181 -684 -776 -784 -3436 0
-143 -181 -684 -2712 -3436 0
-181 -215 -684 -3435 -3436 0
-97 -213 -2682 -2791 -3430 0
-145 -776 -784 -2682 -3430 0
-143 -145 -710 -2682 -2712 0
-145 -215 -710 -2682 -3435 0
-215 -710 -2682 -3371 -3435 0
-710 -776 -784 -2682 -3371 0
-143 -710 -2682 -2712 -3371 0
-710 -713 -2682 -3371 -3440 0
-145 -710 -784 -2682 -3747 0
-145 -675 -710 -2682 -3403 0
-675 -710 -2682 -3371 -3403 0
-181 -684 -784 -3436 -3747 0
-181 -684 -713 -3436 -3440 0
-181 -675 -684 -3403 -3436 0
-142 -143 -684 -2712 0
-179 -776 -784 -2682 0
-179 -713 -2682 -3440 0
-179 -784 -2682 -3747 0
-710 -782 -2682 -2685 -3440 0
-710 -2682 -2712 -2791 0
-143 -179 -2682 -2712 0
-97 -143 -179 -2682 -3438 0
-142 -143 -684 -1864 -2709 0
-210 -784 -2678 -2682 -3404 0
-210 -214 -684 -784 -3411 0
-210 -684 -784 -2793 -3401 0
-210 -684 -749 -784 -2785 0
-177 -684 -2785 -3440 0
-684 -782 -2785 -3440 0
-209 -650 -782 -3410 -3440 0
-206 -782 -2682 -3374 -3440 0
-782 -3410 -3433 -3440 -3444 0
-144 -782 -2785 -3410 -3440 0
-148 -177 -777 -2682 -3440 0
-176 -205 -1720 -2682 -2689 0
-176 -211 -1720 -2682 -3381 0
-176 -185 -777 -1720 -2682 0
-176 -206 -683 -1720 -2682 0
-176 -1720 -2679 -2682 -3369 0
-176 -1720 -2682 -3369 -3370 0
-176 -777 -1720 -2682 -3755 0
-177 -179 -748 -2682 -3440 0
-176 -205 -1688 -2682 -2689 0
-176 -211 -1688 -2682 -3381 0
-176 -185 -777 -1688 -2682 0
-176 -206 -683 -1688 -2682 0
-176 -1688 -2679 -2682 -3369 0
-176 -1688 -2682 -3369 -3370 0
-176 -777 -1688 -2682 -3755 0
-177 -206 -2682 -3374 -3440 0
-144 -177 -2785 -3410 -3440 0
-177 -710 -2682 -2685 -3440 0
-97 -175 -682 -2682 -3438 0
-97 -710 -2682 -2791 -3438 0
-97 -2682 -3369 -3438 0
-185 -214 -777 -785 -2682 0
-97 -214 -777 -2682 -3755 0
-210 -214 -785 -3410 -3755 0
-97 -185 -210 -214 -3410 0
-97 -214 -677 -2682 -2690 0
-97 -214 -2682 -2690 -3434 0
-97 -214 -2682 -3370 -3404 0
-143 -179 -215 -2682 -3769 0
-710 -2679 -2682 -2791 -3478 0
-779 -2679 -2682 -3407 -3478 0
-651 -2679 -3410 -3433 -3478 0
-2679 -2682 -2687 -3437 -3478 0
-2679 -2682 -3377 -3478 -3758 0
-2679 -2682 -3378 -3437 -3478 0
-2679 -2682 -3408 -3437 -3478 0
-2679 -2682 -3437 -3446 -3478 0
-179 -675 -2682 -2689 -3478 0
-179 -712 -2682 -3478 -3757 0
-179 -774 -2682 -3478 -3757 0
-97 -205 -214 -2682 -2689 0
-205 -2682 -2689 -3478 0
-184 -206 -2682 -2712 0
-714 -2682 -2712 -3409 0
-206 -683 -2682 -3478 0
-675 -747 -2689 -3410 -3478 0
-712 -747 -3410 -3478 -3757 0
-747 -774 -3410 -3478 -3757 0
-211 -783 -785 -2682 -3763 0
-211 -2682 -3381 -3478 0
-211 -711 -1720 -2682 -3381 0
-205 -711 -1688 -2682 -2689 0
-97 -213 -682 -2682 -3434 0
-209 -215 -652 -2682 -3434 0
-175 -209 -215 -2682 -3767 0
-175 -209 -652 -678 -2682 0
-97 -175 -652 -783 -2682 0
-97 -175 -783 -2682 -3767 0
-175 -682 -2682 -2712 0
-175 -652 -783 -785 -2682 0
-175 -783 -785 -2682 -3767 0
-175 -209 -678 -2682 -3767 0
-175 -209 -2682 -3477 -3767 0
-145 -710 -2682 -3435 -3477 0
-175 -209 -652 -2682 -3477 0
-144 -175 -652 -2682 -3478 0
-144 -175 -2682 -3478 -3767 0
-145 -678 -710 -2682 -3435 0
-182 -678 -781 -2682 -3435 0
-678 -710 -2682 -3371 -3435 0
-776 -784 -2682 -3371 -3430 0
-2682 -2712 -2791 -3430 0
-182 -776 -781 -784 -2682 0
-143 -182 -781 -2682 -2712 0
-175 -2682 -2690 -3478 0
-143 -181 -211 -2682 -2712 0
-209 -211 -2682 -3477 -3763 0
-209 -211 -215 -2682 -3763 0
-209 -211 -678 -2682 -3763 0
-144 -211 -2682 -3478 -3763 0
-205 -776 -784 -2680 -2682 0
-205 -776 -784 -2682 -2786 0
-143 -205 -2680 -2682 -2712 0
-143 -205 -2682 -2712 -2786 0
-143 -750 -777 -2682 -2712 0
-143 -777 -2682 -2712 -2787 0
-175 -209 -215 -652 -2682 0
-214 -777 -785 -2682 -3755 0
-215 -777 -2682 -2787 -3435 0
-97 -213 -2682 -3377 -3758 0
-97 -2682 -3377 -3438 -3758 0
-97 -779 -2682 -3407 -3438 0
-97 -2682 -2687 -3437 -3438 0
-215 -2682 -2687 -3437 -3769 0
-143 -179 -785 -2682 -3438 0
-214 -785 -2679 -2682 -3404 0
-214 -785 -2682 -3370 -3404 0
-206 -209 -215 -2682 -2793 0
-209 -215 -684 -749 -2785 0
-209 -215 -684 -749 -3745 0
-206 -209 -678 -2682 -2793 0
-209 -678 -684 -749 -2785 0
-209 -678 -684 -749 -3745 0
-97 -206 -783 -2682 -2793 0
-97 -783 -2678 -2682 -3369 0
-97 -684 -749 -783 -2785 0
-97 -684 -749 -783 -3745 0
-206 -783 -785 -2682 -2793 0
-783 -785 -2678 -2682 -3369 0
-684 -749 -783 -785 -2785 0
-684 -749 -783 -785 -3745 0
-209 -215 -684 -3436 -3763 0
-209 -678 -684 -3436 -3763 0
-97 -684 -783 -3436 -3763 0
-684 -783 -785 -3436 -3763 0
-97 -176 -652 -684 -783 0
-97 -652 -684 -711 -783 0
-97 -652 -677 -783 -2682 0
-97 -652 -783 -2682 -3434 0
-142 -215 -684 -3435 0
-215 -750 -777 -2682 -3435 0
-205 -215 -2680 -2682 -3435 0
-205 -215 -2682 -2786 -3435 0
-174 -215 -684 -3371 -3435 0
-145 -215 -684 -3435 -3749 0
-145 -215 -2682 -3430 -3435 0
-215 -2682 -3371 -3430 -3435 0
-215 -684 -3371 -3435 -3749 0
-145 -174 -215 -684 -3435 0
-215 -684 -2680 -3435 -3472 0
-215 -684 -2786 -3435 -3472 0
-182 -215 -781 -2682 -3435 0
-182 -215 -781 -3373 -3435 0
-179 -215 -648 -684 -3435 0
-97 -184 -213 -684 -2816 0
-97 -184 -213 -684 -3401 0
-97 -212 -213 -684 -2687 0
-97 -213 -651 -684 -2711 0
-97 -684 -714 -3442 0
-147 -177 -684 -3440 -3472 0
-684 -705 -2854 -3472 0
-684 -777 -784 -2788 -3472 0
-147 -684 -782 -3440 -3472 0
-147 -684 -2820 -3441 -3472 0
-684 -2711 -2854 -3426 0
-684 -2711 -2820 -3441 -3444 0
-684 -782 -2711 -3440 -3444 0
-684 -2711 -3400 -3403 -3444 0
-179 -684 -776 -784 -3442 0
-175 -684 -1688 -3442 0
-175 -684 -1720 -3442 0
-143 -179 -684 -2712 -3442 0
-184 -206 -684 -2712 -3442 0
-175 -682 -684 -2712 -3442 0
-684 -710 -2712 -2791 -3442 0
-176 -210 -652 -684 -784 0
-176 -209 -215 -652 -684 0
-176 -652 -684 -747 -2820 0
-176 -652 -684 -783 -785 0
-176 -684 -783 -785 -3767 0
-179 -684 -2820 -3442 0
-145 -684 -710 -2820 -3442 0
-648 -684 -2712 -3369 0
-205 -648 -684 -3403 0
-648 -684 -2712 -3404 0
-648 -684 -779 -2712 -3407 0
-648 -684 -781 -3440 0
-206 -648 -684 -1864 0
-714 -785 -3373 0
-778 -784 -3373 -3377 -3758 0
-2712 -3373 -3377 -3758 0
-175 -210 -784 -3373 -3767 0
-714 -2712 -3373 -3409 0
-175 -209 -215 -3373 -3767 0
-175 -747 -2820 -3373 -3767 0
-211 -2694 -2854 -3373 -3763 0
-2818 -2854 -3373 -3425 0
-2712 -2791 -3373 -3430 0
-202 -2854 -3373 -3430 0
-145 -776 -784 -3373 -3430 0
-143 -145 -2712 -3373 -3430 0
-145 -2820 -3373 -3430 0
-2820 -3371 -3373 -3430 0
-175 -2812 -2854 -3373 0
-175 -2682 -2854 -3396 0
-175 -652 -2682 -2694 -2854 0
-175 -2682 -2694 -2854 -3767 0
-684 -2694 -2854 -3436 -3763 0
-174 -202 -684 -2854 0
-210 -750 -2820 -3410 0
-210 -2787 -2820 -3410 0
-713 -750 -777 -2682 -3440 0
-675 -747 -3403 -3410 0
-747 -2800 -2854 -3410 0
-179 -2682 -2854 -3425 -3429 0
-684 -2785 -2854 -3425 -3474 0
-179 -672 -713 -2682 -2854 0
-179 -675 -705 -2682 -2854 0
-205 -705 -2682 -2854 0
-179 -2682 -2800 -2854 0
-177 -672 -684 -2785 -2854 0
-1864 -2709 -3377 -3410 -3432 0
-178 -672 -2682 -2854 -3404 0
-706 -2682 -2709 -2854 -3369 0
-144 -705 -2854 -3410 -3472 0
-672 -684 -782 -2785 -2854 0
-148 -777 -782 -2682 -3440 0
-179 -748 -782 -2682 -3440 0
-177 -2682 -2685 -3430 -3440 0
-177 -681 -780 -3410 -3440 0
-148 -177 -210 -3410 -3440 0
-177 -747 -748 -3410 -3440 0
-181 -211 -2682 -2800 -2854 0
-175 -2682 -2690 -3403 -3472 0
-211 -2682 -3381 -3403 -3472 0
-2679 -2682 -3369 -3403 -3472 0
-2682 -3369 -3370 -3403 -3472 0
-677 -2682 -2690 -3403 -3472 0
-677 -2682 -2812 -2854 0
-2682 -2812 -2854 -3434 0
-176 -1688 -2679 -2682 -3404 0
-711 -1688 -2679 -2682 -3404 0
-2679 -2682 -3403 -3404 -3472 0
-2682 -3370 -3403 -3404 -3472 0
-706 -2682 -2709 -2854 -3404 0
-678 -2682 -3404 -3769 0
-783 -1864 -2709 -3409 -3410 0
-144 -1864 -3401 -3410 0
-144 -3410 -3478 0
-144 -177 -3410 -3440 -3745 0
-684 -2820 -3371 -3749 0
-710 -2682 -2685 -3400 -3403 0
-148 -777 -2682 -3400 -3403 0
-148 -777 -2682 -2820 -3441 0
-3400 -3403 -3410 -3433 -3444 0
-710 -2682 -2685 -2820 -3441 0
-2820 -3410 -3433 -3441 -3444 0
-684 -782 -3440 -3745 0
-684 -3400 -3403 -3745 0
-684 -2785 -2820 -3441 0
-184 -684 -2712 -2785 -3473 0
-684 -2820 -3441 -3745 0
-178 -184 -206 -2682 -3440 0
-178 -710 -2682 -2791 -3440 0
-684 -2680 -2785 -2820 -3400 0
-684 -2785 -2786 -2820 -3400 0
-182 -684 -782 -2785 -2820 0
-184 -206 -2682 -3477 -3769 0
-175 -215 -682 -2682 -3769 0
-209 -215 -684 -711 -3767 0
-209 -215 -677 -2682 -3767 0
-215 -710 -2682 -2791 -3769 0
-684 -711 -747 -2820 -3767 0
-677 -747 -2682 -2820 -3767 0
-747 -2682 -2820 -3434 -3767 0
-215 -779 -2682 -3407 -3769 0
-215 -2682 -2687 -3735 -3769 0
-215 -2682 -3377 -3758 -3769 0
-212 -215 -684 -2687 -3769 0
-97 -651 -684 -2711 -3438 0
-97 -212 -684 -2687 -3438 0
-97 -2682 -2687 -3438 -3735 0
-215 -651 -684 -2711 -3769 0
-684 -747 -749 -2785 -2820 0
-206 -747 -2682 -2793 -2820 0
-684 -747 -749 -2820 -3745 0
-97 -184 -206 -213 -2682 0
-211 -747 -2682 -2820 -3763 0
-215 -747 -3410 -3435 0
-684 -711 -1720 0
-176 -684 -1720 0
-175 -1688 -2682 0
-209 -2678 -2682 -3369 -3477 0
-206 -209 -2682 -2793 -3477 0
-209 -684 -749 -2785 -3477 0
-209 -684 -749 -3477 -3745 0
-209 -684 -3436 -3477 -3763 0
-209 -215 -684 -2793 -2816 0
-209 -215 -684 -2793 -3401 0
-209 -678 -684 -2793 -3401 0
-209 -678 -684 -2793 -2816 0
-97 -684 -783 -2793 -3401 0
-97 -684 -783 -2793 -2816 0
-209 -684 -2793 -3401 -3477 0
-209 -684 -2793 -2816 -3477 0
-142 -684 -3435 -3477 0
-145 -174 -684 -3435 -3477 0
-684 -2785 -3435 -3441 -3477 0
-684 -3435 -3441 -3477 -3745 0
-145 -684 -3435 -3477 -3749 0
-182 -781 -2682 -3435 -3477 0
-750 -777 -2682 -3435 -3477 0
-145 -678 -2682 -3430 -3435 0
-205 -678 -2680 -2682 -3435 0
-678 -684 -2680 -3435 -3472 0
-215 -684 -2785 -3435 -3441 0
-215 -684 -3435 -3441 -3745 0
-209 -215 -2678 -2682 -3404 0
-209 -215 -714 -3373 -3411 0
-209 -214 -215 -684 -3411 0
-146 -677 -684 -1720 -2816 0
-209 -211 -215 -3373 -3763 0
-648 -677 -684 -1720 0
-677 -684 -1720 -3442 0
-677 -684 -1688 -2788 -3472 0
-175 -647 -684 -1688 -2785 0
-175 -214 -684 -1688 -2683 0
-142 -175 -684 -1688 -2784 0
-146 -175 -684 -1688 -2816 0
-175 -648 -684 -1688 0
-175 -209 -215 -652 -3373 0
-209 -215 -2678 -3369 -3373 0
-209 -215 -2678 -3373 -3404 0
-209 -215 -652 -684 -711 0
-209 -215 -652 -677 -2682 0
-209 -215 -2682 -3434 -3767 0
-176 -209 -215 -684 -3767 0
-185 -711 -777 -1688 -2682 0
-711 -777 -1720 -2682 -3755 0
-176 -1688 -2682 -3370 -3404 0
-710 -2682 -2791 -3370 -3478 0
-779 -2682 -3370 -3407 -3478 0
-714 -2682 -3370 -3409 -3478 0
-2682 -2687 -3370 -3437 -3478 0
-2682 -2687 -3370 -3478 -3735 0
-2682 -3370 -3377 -3478 -3758 0
-778 -784 -2682 -3408 -3437 0
-2682 -3370 -3378 -3437 -3478 0
-1864 -2682 -2709 -3378 -3437 0
-215 -2682 -3378 -3437 -3769 0
-678 -714 -2682 -3409 -3769 0
-710 -2682 -2791 -3477 -3769 0
-678 -710 -2682 -2791 -3769 0
-209 -678 -714 -2682 -3411 0
-779 -2682 -3407 -3477 -3769 0
-678 -779 -2682 -3407 -3769 0
-710 -1864 -2682 -2709 -2791 0
-213 -785 -2682 -3408 -3437 0
-785 -2682 -3408 -3437 -3438 0
-1864 -2682 -2709 -3408 -3437 0
-1864 -2682 -2709 -3437 -3446 0
-145 -784 -2682 -3430 -3747 0
-145 -675 -2682 -3403 -3430 0
-179 -185 -776 -2682 -3478 0
-179 -776 -2682 -3478 -3755 0
-777 -1864 -2682 -2816 -3755 0
-777 -1864 -2682 -3401 -3755 0
-711 -777 -1688 -2682 -3755 0
-777 -2682 -3403 -3472 -3755 0
-185 -777 -1864 -2682 -3401 0
-185 -777 -1864 -2682 -2816 0
-185 -711 -777 -1720 -2682 0
-185 -777 -2682 -3403 -3472 0
-97 -185 -214 -777 -2682 0
-678 -777 -2682 -2787 -3435 0
-777 -2682 -2787 -3435 -3477 0
-675 -750 -777 -2682 -3403 0
-675 -777 -2682 -2787 -3403 0
-678 -750 -777 -2682 -3435 0
-205 -678 -2682 -2786 -3435 0
-142 -205 -2682 -2689 -2820 0
-147 -205 -2682 -2820 -3441 0
-205 -711 -1720 -2682 -2689 0
-710 -785 -2682 -2791 -3438 0
-213 -710 -785 -2682 -2791 0
-205 -713 -2680 -2682 -3440 0
-205 -784 -2680 -2682 -3747 0
-97 -783 -2678 -2682 -3404 0
-174 -177 -684 -2685 -3440 0
-177 -684 -2685 -3440 -3749 0
-177 -681 -779 -3373 -3440 0
-147 -177 -205 -3373 -3440 0
-177 -710 -2685 -3373 -3440 0
-177 -751 -3373 -3440 -3758 0
-713 -747 -3410 -3440 0
-179 -180 -713 -3410 -3440 0
-142 -144 -713 -3410 -3440 0
-144 -176 -1688 -3410 0
-144 -648 -781 -3410 -3440 0
-144 -711 -1688 -3410 0
-144 -781 -3410 -3440 -3442 0
-210 -713 -750 -3410 -3440 0
-210 -713 -2787 -3410 -3440 0
-178 -780 -3407 -3410 -3440 0
-178 -783 -3409 -3410 -3440 0
-175 -783 -1720 -2683 -3410 0
-144 -184 -2712 -2816 -3410 0
-144 -212 -2687 -2712 -3410 0
-144 -651 -2711 -2712 -3410 0
-144 -174 -2712 -2791 -3410 0
-175 -680 -780 -1720 -3410 0
-175 -780 -1720 -2789 -3410 0
-175 -780 -1720 -3410 -3752 0
-144 -212 -2712 -3378 -3410 0
-144 -212 -2712 -3408 -3410 0
-144 -212 -2712 -3410 -3446 0
-144 -184 -2712 -3401 -3410 0
-180 -184 -206 -2712 -3410 0
-180 -2712 -3369 -3410 0
-180 -2712 -3404 -3410 0
-180 -781 -3410 -3440 0
-781 -783 -2683 -3410 -3440 0
-680 -780 -2712 -3369 -3410 0
-144 -214 -2712 -3409 -3410 0
-680 -780 -2712 -3404 -3410 0
-97 -680 -714 -780 -3410 0
-680 -780 -781 -3410 -3440 0
-780 -781 -2789 -3410 -3440 0
-780 -2712 -3369 -3410 -3752 0
-780 -2712 -3404 -3410 -3752 0
-780 -781 -3410 -3440 -3752 0
-144 -2712 -2791 -3410 -3749 0
-179 -776 -784 -3373 0
-143 -179 -2712 -3373 0
-184 -206 -2712 -3373 0
-179 -2820 -3373 0
-2712 -3369 -3373 0
-2712 -3373 -3404 0
-781 -3373 -3440 0
-144 -2680 -2820 -3410 -3472 0
-144 -2786 -2820 -3410 -3472 0
-684 -782 -2685 -3440 -3749 0
-174 -684 -2685 -3400 -3403 0
-174 -684 -2685 -2820 -3441 0
-174 -684 -782 -2685 -3440 0
-684 -2685 -3400 -3403 -3749 0
-684 -2685 -2820 -3441 -3749 0
-145 -684 -2820 -3749 0
-145 -174 -684 -2820 0
-97 -213 -684 -2791 -3749 0
-174 -684 -778 -784 -2791 0
-146 -175 -684 -1720 -3401 0
-97 -184 -684 -3401 -3438 0
-178 -184 -684 -2816 -3440 0
-178 -651 -3410 -3433 -3440 0
-97 -174 -684 -2791 -3438 0
-174 -178 -684 -2791 -3440 0
-174 -215 -684 -2791 -3769 0
-183 -777 -784 -3410 -3432 0
-97 -183 -714 -3410 -3432 0
-175 -183 -1720 -3410 -3432 0
-179 -183 -2820 -3410 -3432 0
-183 -781 -3410 -3432 -3440 0
-146 -684 -781 -2816 -3440 0
-183 -1720 -3410 -3432 -3434 0
-181 -211 -648 -684 -2820 0
-205 -648 -684 -2680 -2820 0
-2681 -2820 -3369 -3373 -3760 0
-775 -2820 -3369 -3373 -3405 0
-205 -776 -784 -2786 -3373 0
-205 -2786 -2820 -3373 0
-176 -210 -684 -784 -3767 0
-176 -684 -747 -2820 -3767 0
-747 -2678 -2682 -2820 -3404 0
-212 -684 -778 -784 -2687 0
-651 -684 -778 -784 -2711 0
-684 -778 -784 -2791 -3749 0
-778 -784 -2682 -2791 -3430 0
-97 -213 -2682 -3378 -3735 0
-97 -213 -2682 -3408 -3735 0
-173 -684 -2712 -2785 -2791 0
-684 -2710 -2712 -2785 -2791 0
-684 -2712 -2785 -2791 -3431 0
-684 -2712 -2785 -3402 -3446 0
-684 -2712 -2785 -3378 -3402 0
-684 -2712 -2785 -3402 -3408 0
-684 -2712 -3402 -3446 -3745 0
-684 -2712 -3378 -3402 -3745 0
-206 -2682 -2820 -3374 -3441 0
-684 -2820 -3374 -3401 -3441 0
-684 -776 -784 -3441 -3745 0
-684 -784 -3441 -3745 -3747 0
-143 -684 -2712 -3441 -3745 0
-684 -2712 -3402 -3408 -3745 0
-173 -684 -2712 -2791 -3745 0
-675 -684 -3403 -3441 -3745 0
-210 -684 -749 -784 -3745 0
-684 -2785 -3400 -3403 0
-144 -2785 -3400 -3403 -3410 0
-144 -1864 -2785 -3410 -3473 0
-750 -778 -2682 -2820 -3404 0
-778 -2682 -2787 -2820 -3404 0
-778 -784 -2682 -3378 -3437 0
-778 -784 -2682 -3437 -3446 0
-2682 -2685 -3400 -3403 -3430 0
-782 -2682 -2685 -3430 -3440 0
-2682 -2685 -2820 -3430 -3441 0
-211 -1864 -2682 -2816 -3381 0
-211 -1864 -2682 -3381 -3401 0
-181 -211 -2682 -3435 -3477 0
-211 -711 -1688 -2682 -3381 0
-97 -211 -214 -2682 -3381 0
-210 -652 -677 -784 -2682 0
-677 -682 -2682 -2712 0
-210 -677 -784 -2682 -3767 0
-210 -215 -750 -3410 -3435 0
-210 -215 -2787 -3410 -3435 0
-142 -144 -215 -3410 -3435 0
-145 -215 -710 -3373 -3435 0
-165 -651 -678 -682 -683 -714 -747 -750 -752 -785 -1875 -2712 -2786 -2791 -2792 -2794 -2820 -3377 -3381 -3405 -3407 -3441 -3478 0
-165 -177 -181 -651 -678 -679 -682 -683 -714 -747 -752 -784 -785 -1875 -2681 -2712 -2791 -2820 -3377 -3403 -3405 -3407 -3440 -3478 0
-165 -177 -181 -184 -214 -215 -651 -682 -714 -747 -752 -784 -785 -1875 -2681 -2712 -2791 -2820 -3372 -3377 -3403 -3405 -3407 -3440 0
-165 -177 -181 -184 -210 -214 -215 -651 -682 -714 -752 -784 -785 -1875 -2681 -2712 -2791 -2820 -3377 -3403 -3405 -3407 -3440 -3443 0
-165 -177 -181 -184 -210 -215 -651 -682 -714 -754 -784 -785 -1875 -2681 -2712 -2791 -2820 -3377 -3403 -3405 -3407 -3440 -3443 -3478 0
-142 -165 -177 -181 -184 -210 -215 -651 -682 -714 -784 -785 -1875 -2681 -2712 -2791 -2792 -2820 -3377 -3403 -3405 -3406 -3407 -3440 0
-142 -165 -177 -181 -184 -210 -215 -651 -682 -714 -784 -785 -1875 -2681 -2712 -2791 -2792 -2820 -3377 -3403 -3405 -3407 -3440 -3445 0
-165 -177 -181 -184 -210 -215 -651 -679 -682 -714 -784 -785 -1875 -2681 -2712 -2791 -2820 -3377 -3403 -3405 -3406 -3407 -3440 -3478 0
-165 -177 -181 -184 -210 -214 -215 -651 -682 -777 -784 -785 -1875 -2681 -2712 -2791 -2820 -3372 -3377 -3403 -3405 -3406 -3407 -3440 0
-165 -177 -181 -184 -210 -214 -215 -651 -682 -777 -784 -785 -1875 -2681 -2712 -2791 -2820 -3377 -3403 -3405 -3406 -3407 -3440 -3443 0
-165 -177 -181 -184 -210 -215 -651 -679 -682 -714 -784 -785 -1875 -2681 -2712 -2791 -2820 -3377 -3403 -3405 -3407 -3440 -3445 -3478 0
-165 -177 -181 -184 -210 -215 -651 -679 -682 -714 -754 -784 -785 -1875 -2681 -2712 -2791 -2820 -3377 -3403 -3405 -3407 -3440 -3478 0
-165 -177 -181 -184 -210 -215 -651 -682 -714 -752 -784 -785 -1875 -2681 -2712 -2791 -2792 -2820 -3377 -3403 -3405 -3407 -3440 -3478 0
-165 -177 -181 -184 -210 -215 -651 -682 -714 -754 -784 -785 -1875 -2681 -2712 -2791 -2792 -2820 -3377 -3403 -3405 -3407 -3440 -3478 0
-142 -177 -181 -184 -210 -215 -651 -682 -714 -784 -785 -1875 -2681 -2712 -2791 -2820 -3372 -3377 -3403 -3405 -3407 -3440 -3445 -3458 0
-177 -181 -184 -210 -215 -651 -682 -754 -777 -784 -785 -1875 -2681 -2712 -2791 -2792 -2820 -3377 -3403 -3405 -3407 -3440 -3458 -3478 0
-177 -181 -184 -210 -215 -651 -682 -752 -777 -784 -785 -1875 -2681 -2712 -2791 -2792 -2820 -3377 -3403 -3405 -3407 -3440 -3458 -3478 0
-142 -177 -181 -184 -210 -215 -651 -682 -714 -784 -785 -1875 -2681 -2712 -2791 -2820 -3372 -3377 -3403 -3405 -3406 -3407 -3440 -3458 0
-142 -177 -181 -184 -210 -215 -651 -682 -714 -784 -785 -1875 -2681 -2712 -2791 -2820 -3377 -3403 -3405 -3406 -3407 -3440 -3443 -3458 0
-177 -181 -184 -210 -215 -651 -682 -777 -784 -785 -1875 -2681 -2712 -2791 -2792 -2820 -3377 -3403 -3405 -3406 -3407 -3440 -3458 -3478 0
-177 -181 -184 -210 -215 -651 -682 -777 -784 -785 -1875 -2681 -2712 -2791 -2792 -2820 -3377 -3403 -3405 -3407 -3440 -3445 -3458 -3478 0
-142 -177 -181 -184 -210 -215 -651 -682 -714 -784 -785 -1875 -2681 -2712 -2791 -2820 -3377 -3403 -3405 -3407 -3440 -3443 -3445 -3458 0
-177 -181 -184 -210 -215 -651 -679 -682 -754 -777 -784 -785 -1875 -2681 -2712 -2791 -2820 -3377 -3403 -3405 -3407 -3440 -3458 -3478 0
-177 -181 -184 -210 -215 -651 -682 -714 -754 -784 -785 -1875 -2681 -2712 -2791 -2820 -3372 -3377 -3403 -3405 -3407 -3440 -3458 -3478 0
-177 -181 -184 -210 -215 -651 -682 -714 -754 -784 -785 -1875 -2681 -2712 -2791 -2820 -3377 -3403 -3405 -3407 -3440 -3443 -3458 -3478 0
-142 -177 -181 -184 -210 -215 -651 -679 -682 -752 -777 -784 -785 -1875 -2681 -2712 -2791 -2820 -3377 -3403 -3405 -3407 -3440 -3458 0
-165 -177 -181 -184 -210 -215 -651 -679 -682 -714 -752 -784 -785 -1875 -2681 -2712 -2791 -2820 -3377 -3403 -3405 -3407 -3440 -3478 0
-142 -177 -181 -184 -210 -215 -651 -679 -682 -777 -784 -785 -1875 -2681 -2712 -2791 -2820 -3377 -3403 -3405 -3407 -3440 -3445 -3458 0
-142 -177 -181 -184 -210 -215 -651 -679 -682 -777 -784 -785 -1875 -2681 -2712 -2791 -2820 -3377 -3403 -3405 -3406 -3407 -3440 -3458 0
-142 -165 -177 -181 -184 -210 -215 -651 -682 -777 -784 -785 -1875 -2681 -2712 -2791 -2820 -3372 -3377 -3403 -3405 -3407 -3440 -3445 0
-165 -177 -181 -184 -210 -215 -651 -682 -714 -754 -784 -785 -1875 -2681 -2712 -2791 -2820 -3372 -3377 -3403 -3405 -3407 -3440 -3478 0
-165 -177 -181 -184 -210 -215 -651 -682 -777 -784 -785 -1875 -2681 -2712 -2791 -2820 -3372 -3377 -3403 -3405 -3406 -3407 -3440 -3478 0
-142 -165 -177 -181 -184 -210 -215 -651 -682 -714 -752 -784 -785 -1875 -2681 -2712 -2791 -2820 -3377 -3403 -3405 -3407 -3440 -3443 0
-142 -165 -177 -181 -184 -210 -215 -651 -682 -714 -752 -784 -785 -1875 -2681 -2712 -2791 -2820 -3372 -3377 -3403 -3405 -3407 -3440 0
-142 -177 -181 -184 -210 -215 -651 -682 -714 -752 -784 -785 -1875 -2681 -2712 -2791 -2820 -3372 -3377 -3403 -3405 -3407 -3440 -3458 0
-142 -177 -181 -184 -210 -215 -651 -682 -752 -777 -784 -785 -1875 -2681 -2712 -2791 -2820 -3377 -3403 -3405 -3407 -3440 -3443 -3458 0
-142 -165 -177 -181 -184 -210 -215 -651 -682 -777 -784 -785 -1875 -2681 -2712 -2791 -2820 -3377 -3403 -3405 -3407 -3440 -3443 -3445 0
-165 -177 -181 -184 -210 -215 -651 -682 -777 -784 -785 -1875 -2681 -2712 -2791 -2820 -3377 -3403 -3405 -3406 -3407 -3440 -3443 -3478 0
-165 -177 -181 -184 -210 -215 -651 -682 -752 -784 -785 -1875 -2681 -2712 -2791 -2820 -3369 -3372 -3377 -3403 -3405 -3407 -3440 -3478 0
-165 -177 -181 -184 -210 -215 -651 -682 -754 -777 -784 -785 -1875 -2681 -2712 -2791 -2792 -2820 -3377 -3403 -3405 -3407 -3440 -3478 0
-165 -177 -181 -184 -210 -215 -651 -682 -752 -777 -784 -785 -1875 -2681 -2712 -2791 -2792 -2820 -3377 -3403 -3405 -3407 -3440 -3478 0
-165 -177 -181 -184 -210 -215 -651 -679 -682 -752 -777 -784 -785 -1875 -2681 -2712 -2791 -2820 -3377 -3403 -3405 -3407 -3440 -3478 0
-142 -165 -177 -181 -184 -210 -215 -651 -682 -752 -777 -784 -785 -1875 -2681 -2712 -2791 -2820 -3372 -3377 -3403 -3405 -3407 -3440 0
-165 -177 -181 -184 -210 -215 -651 -682 -754 -784 -785 -1875 -2681 -2712 -2791 -2820 -3377 -3403 -3404 -3405 -3407 -3440 -3443 -3478 0
-165 -177 -181 -184 -210 -215 -651 -682 -752 -777 -784 -785 -1875 -2681 -2712 -2791 -2820 -3377 -3403 -3405 -3407 -3440 -3443 -3478 0
-142 -177 -181 -184 -210 -215 -651 -682 -752 -777 -784 -785 -1875 -2681 -2712 -2791 -2820 -3372 -3377 -3403 -3405 -3407 -3440 -3458 0
-177 -181 -184 -210 -215 -651 -682 -754 -777 -784 -785 -1875 -2681 -2712 -2791 -2820 -3372 -3377 -3403 -3405 -3407 -3440 -3458 -3478 0
-142 -177 -181 -184 -210 -215 -651 -682 -777 -784 -785 -1875 -2681 -2712 -2791 -2820 -3372 -3377 -3403 -3405 -3406 -3407 -3440 -3458 0
-177 -181 -184 -210 -214 -215 -651 -682 -777 -784 -785 -1875 -2681 -2712 -2791 -2820 -3372 -3377 -3403 -3405 -3407 -3440 -3445 -3458 0
-142 -177 -181 -184 -210 -215 -651 -682 -777 -784 -785 -1875 -2681 -2712 -2791 -2820 -3372 -3377 -3403 -3405 -3407 -3440 -3445 -3458 0
-142 -177 -181 -184 -210 -215 -651 -682 -777 -784 -785 -1875 -2681 -2712 -2791 -2820 -3377 -3403 -3405 -3407 -3440 -3443 -3445 -3458 0
-177 -181 -184 -210 -215 -651 -682 -754 -777 -784 -785 -1875 -2681 -2712 -2791 -2820 -3377 -3403 -3405 -3407 -3440 -3443 -3458 -3478 0
-177 -181 -184 -210 -214 -215 -651 -682 -777 -784 -785 -1875 -2681 -2712 -2791 -2820 -3377 -3403 -3405 -3406 -3407 -3440 -3443 -3458 0
-142 -177 -181 -184 -210 -215 -651 -682 -777 -784 -785 -1875 -2681 -2712 -2791 -2820 -3377 -3403 -3405 -3406 -3407 -3440 -3443 -3458 0
-142 -165 -177 -181 -184 -210 -215 -651 -679 -682 -777 -784 -785 -1875 -2681 -2712 -2791 -2820 -3377 -3403 -3405 -3407 -3440 -3445 0
-165 -177 -181 -184 -210 -215 -651 -679 -682 -754 -777 -784 -785 -1875 -2681 -2712 -2791 -2820 -3377 -3403 -3405 -3407 -3440 -3478 0
-165 -177 -181 -184 -210 -215 -651 -679 -682 -777 -784 -785 -1875 -2681 -2712 -2791 -2820 -3377 -3403 -3405 -3406 -3407 -3440 -3478 0
-142 -165 -177 -181 -184 -210 -215 -651 -682 -777 -784 -785 -1875 -2681 -2712 -2791 -2792 -2820 -3377 -3403 -3405 -3407 -3440 -3445 0
-142 -165 -177 -181 -184 -210 -215 -651 -682 -777 -784 -785 -1875 -2681 -2712 -2791 -2792 -2820 -3377 -3403 -3405 -3406 -3407 -3440 0
-165 -177 -181 -184 -210 -215 -651 -682 -754 -777 -784 -785 -1875 -2681 -2712 -2791 -2820 -3372 -3377 -3403 -3405 -3407 -3440 -3478 0
-165 -177 -181 -184 -210 -215 -651 -682 -754 -777 -784 -785 -1875 -2681 -2712 -2791 -2820 -3377 -3403 -3405 -3407 -3440 -3443 -3478 0
-165 -177 -181 -210 -215 -651 -682 -683 -714 -752 -784 -785 -1875 -2681 -2712 -2791 -2792 -2820 -3377 -3403 -3405 -3407 -3440 -3478 0
-165 -177 -181 -210 -215 -651 -682 -683 -754 -777 -784 -785 -1875 -2681 -2712 -2791 -2792 -2820 -3377 -3403 -3405 -3407 -3440 -3478 0
-177 -181 -210 -215 -651 -682 -683 -754 -777 -784 -785 -1875 -2681 -2712 -2791 -2792 -2820 -3377 -3403 -3405 -3407 -3440 -3458 -3478 0
-177 -181 -210 -215 -651 -682 -683 -752 -777 -784 -785 -1875 -2681 -2712 -2791 -2792 -2820 -3377 -3403 -3405 -3407 -3440 -3458 -3478 0
-165 -177 -181 -210 -215 -651 -682 -683 -752 -777 -784 -785 -1875 -2681 -2712 -2791 -2792 -2820 -3377 -3403 -3405 -3407 -3440 -3478 0
-177 -181 -210 -215 -651 -679 -682 -683 -752 -777 -784 -785 -1875 -2681 -2712 -2791 -2820 -3377 -3403 -3405 -3407 -3440 -3458 -3478 0
-165 -177 -181 -210 -215 -651 -682 -683 -754 -777 -784 -785 -1875 -2681 -2712 -2791 -2820 -3372 -3377 -3403 -3405 -3407 -3440 -3478 0
-165 -177 -181 -210 -215 -651 -682 -683 -754 -777 -784 -785 -1875 -2681 -2712 -2791 -2820 -3377 -3403 -3405 -3407 -3440 -3443 -3478 0
-165 -177 -181 -210 -215 -651 -682 -683 -752 -777 -784 -785 -1875 -2681 -2712 -2791 -2820 -3372 -3377 -3403 -3405 -3407 -3440 -3478 0
-165 -177 -181 -210 -215 -651 -682 -683 -752 -777 -784 -785 -1875 -2681 -2712 -2791 -2820 -3377 -3403 -3405 -3407 -3440 -3443 -3478 0
-165 -177 -181 -210 -215 -651 -679 -682 -683 -752 -777 -784 -785 -1875 -2681 -2712 -2791 -2820 -3377 -3403 -3405 -3407 -3440 -3478 0
-177 -181 -210 -215 -651 -682 -683 -752 -777 -784 -785 -1875 -2681 -2712 -2791 -2820 -3372 -3377 -3403 -3405 -3407 -3440 -3458 -3478 0
-177 -181 -210 -215 -651 -682 -683 -752 -777 -784 -785 -1875 -2681 -2712 -2791 -2820 -3377 -3403 -3405 -3407 -3440 -3443 -3458 -3478 0
-177 -181 -210 -215 -651 -682 -683 -754 -777 -784 -785 -1875 -2681 -2712 -2791 -2820 -3372 -3377 -3403 -3405 -3407 -3440 -3458 -3478 0
-177 -181 -210 -215 -651 -679 -682 -683 -754 -777 -784 -785 -1875 -2681 -2712 -2791 -2820 -3377 -3403 -3405 -3407 -3440 -3458 -3478 0
-177 -181 -210 -215 -651 -679 -682 -683 -777 -784 -785 -1875 -2681 -2712 -2791 -2820 -3377 -3403 -3405 -3406 -3407 -3440 -3458 -3478 0
